@SET project      C32
@SET fermi_level  -0.14283530 
@SET v_bias_volt  0.0
@SET temperature  293.0

@SET basis_set_path BASIS_MOLOPT
@SET potential_path GTH_POTENTIALS
@SET basis_set_h    SZV-MOLOPT-GTH
@SET potential_h    GTH-PBE-q1

@SET xc_functional  pbe

@SET cutoff         350
@SET added_mos      100
@SET max_scf        100
@SET eps_scf        1e-6

@SET lx             10.0
@SET ly             10.0

&GLOBAL
  PROJECT              ${project}
  RUN_TYPE             negf
  PRINT_LEVEL          low
  EXTENDED_FFT_LENGTHS .true.
&END GLOBAL

&NEGF

    &CONTACT
      &BULK_REGION
         # Atomic indices (and/or names of molecular fragments) that belong to the bulk contact region.
         MOLNAME L1 L2
         # List of atoms that belong to the primary and secondary bulk unit cells
         # of the 1st contact. Primary and secondary unit cells can be defined in any order.
         # They should be adjusted to each other and should not overlap.
         #
         # As matrix blocks should correspond to ones for the bulk contact,
         # in actual calculation you may want to use a longer chain, e.g.
         #    L1    L2    L3    L4    L5    L6 .
         #              cell1  cell2
         # Alternatively, instead of the below CELL sections, a separate bulk FORCE_EVAL section
         # for the contact can be set up and the keyword FORCE_EVAL_SECTION should be set accordingly
         # (see the test file regtest-negf-fft/li_chain_kp.inp).
         &CELL
            MOLNAME L1
         &END CELL
         &CELL
            MOLNAME L2
         &END CELL
      &END
      &SCREENING_REGION
         MOLNAME L0
      &END
      FERMI_LEVEL  ${fermi_level}
      REFINE_FERMI_LEVEL
      ELECTRIC_POTENTIAL [eV] ${v_bias_volt}/2
      TEMPERATURE [K] ${temperature}
    &END CONTACT

    &CONTACT
      # the second semi-infinite electrode
      &BULK_REGION
         MOLNAME R1 R2
         &CELL
            MOLNAME R1
         &END CELL
         &CELL
            MOLNAME R2
         &END CELL
      &END
      &SCREENING_REGION
         MOLNAME R0
      &END
      #FERMI_LEVEL  ${fermi_level}
      #REFINE_FERMI_LEVEL
      ELECTRIC_POTENTIAL [eV] -${v_bias_volt}/2
      TEMPERATURE [K] ${temperature}
    &END CONTACT
    
    &SCATTERING_REGION
       MOLNAME S
    &END SCATTERING_REGION

    # Density mixing is not needed in zero-bias case, as NEGF self-consistent
    # procedure will converge in one iteration. However, when an external bias
    # is applied, a density mixing scheme in inverse space is typically
    # much stable then the default direct mixing of new and old density matrices.
    &MIXING
       ALPHA   0.05
       METHOD  broyden_mixing
       NBUFFER 8
    &END MIXING

    # Integration lower bound (in Hartree)
    ENERGY_LBOUND -2.0
    
    INTEGRATION_METHOD simpson #clenshaw-curtis

    # Maximum error in each matrix element of the density matrix
    EPS_DENSITY    1e-6

    MAX_SCF        100

    # Boundary conditions define solution of the Poisson equation up to
    # an additive constant, which affects Hamiltonian matrix elements within
    # the NEGF procedure. The following parameters control evaluation of
    # the correct shift in Hartree potential:
    #   * V_SHIFT           -- initial guess for the shift
    #   * V_SHIFT_MAX_ITERS -- maximal number of iterations
    #V_SHIFT             0.03
    V_SHIFT_MAX_ITERS   100

    &PRINT
       &DOS
          FILENAME device
          FROM_ENERGY [eV] -5
          TILL_ENERGY [eV] 6
          N_GRIDPOINTS 401
       &END
       &TRANSMISSION
          FILENAME transm
          FROM_ENERGY [eV] -5
          TILL_ENERGY [eV] 6
          N_GRIDPOINTS 401
       &END
    &END

    # Number of parallel processes per energy point.
    # 'NPROC_POINT 1' means that if you run this job using 8 MPI processes,
    # than Green's functions at up to 8 (8 / NPROC_POINT) energy points
    # will be computed simultaneously.
    #
    # This is a good choice as the actual NEGF matrices are very small
    # (up to 16 x 16 elements)
    # 
    NPROC_POINT 1

    USE_DFTBXT

&END NEGF

# *** Primary force environment ***
&FORCE_EVAL

  METHOD Quickstep

  &DFT
    BASIS_SET_FILE_NAME ${basis_set_path}
    POTENTIAL_FILE_NAME ${potential_path}
    &MGRID
      CUTOFF ${cutoff}
    &END MGRID
    &SCF
      MAX_SCF   ${max_scf}
      EPS_SCF   ${eps_scf}
      SCF_GUESS restart
      ADDED_MOS ${added_mos}
      &SMEAR
         ELECTRONIC_TEMPERATURE [K] ${temperature}
         METHOD fermi_dirac
      &END SMEAR
      &MIXING
         ALPHA   0.03
         METHOD  broyden_mixing
         NBUFFER 8
      &END MIXING
      &PRINT
         &RESTART
            FILENAME RESTART_0
         &END RESTART
      &END PRINT
    &END SCF
    &POISSON
       PERIODIC xyz
    &END POISSON
    &XC
      &XC_FUNCTIONAL ${xc_functional}
      &END XC_FUNCTIONAL
    &END XC
  &END DFT

  &SUBSYS
    &CELL
      ABC    ${lx} ${ly}  53.504 
      PERIODIC xyz
    &END CELL
    &COORD
C            0.00000000           0.00000000           6.68800000 L2
C            0.00000000           0.00000000           8.36000000 L2
C            0.00000000           0.00000000          10.03200000 L2
C            0.00000000           0.00000000          11.70400000 L2
C            0.00000000           0.00000000          13.37600000 L1
C            0.00000000           0.00000000          15.04800000 L1
C            0.00000000           0.00000000          16.72000000 L1
C            0.00000000           0.00000000          18.39200000 L1
C            0.00000000           0.00000000          20.06400000 L0
C            0.00000000           0.00000000          21.73600000 L0
C            0.00000000           0.00000000          23.40800000 L0
C            0.00000000           0.00000000          25.08000000 L0
C            0.00000000           0.00000000          26.75200000 S
C            0.00000000           0.00000000          28.42400000 S
C            0.00000000           0.00000000          30.09600000 S
C            0.00000000           0.00000000          31.76800000 S
C            0.00000000           0.00000000          33.44000000 S
C            0.00000000           0.00000000          35.11200000 S
C            0.00000000           0.00000000          36.78400000 S
C            0.00000000           0.00000000          38.45600000 S
C            0.00000000           0.00000000          40.12800000 R0
C            0.00000000           0.00000000          41.80000000 R0
C            0.00000000           0.00000000          43.47200000 R0
C            0.00000000           0.00000000          45.14400000 R0
C            0.00000000           0.00000000          46.81600000 R1
C            0.00000000           0.00000000          48.48800000 R1
C            0.00000000           0.00000000          50.16000000 R1
C            0.00000000           0.00000000          51.83200000 R1
C            0.00000000           0.00000000          53.50400000 R2
C            0.00000000           0.00000000          55.17600000 R2
C            0.00000000           0.00000000          56.84800000 R2
C            0.00000000           0.00000000          58.52000000 R2
    &END COORD
    &KIND H
      BASIS_SET ${basis_set_h}
      POTENTIAL ${potential_h}
    &END KIND
    &KIND C
      BASIS_SET SZV-MOLOPT-GTH
      POTENTIAL GTH-PBE-q4
    &END KIND
  &END SUBSYS

&END FORCE_EVAL

